certificates/rado_a15_c66_N61.cnf
c Rad2 upper bound instance: x1 + 15*x2 - x3 = 66, interval [1,61]
p cnf 61 494
1 5 10 0
-1 -5 -10 0
1 6 25 0
-1 -6 -25 0
1 7 40 0
-1 -7 -40 0
1 8 55 0
-1 -8 -55 0
2 5 11 0
-2 -5 -11 0
2 6 26 0
-2 -6 -26 0
2 7 41 0
-2 -7 -41 0
2 8 56 0
-2 -8 -56 0
3 5 12 0
-3 -5 -12 0
3 6 27 0
-3 -6 -27 0
3 7 42 0
-3 -7 -42 0
3 8 57 0
-3 -8 -57 0
4 5 13 0
-4 -5 -13 0
4 6 28 0
-4 -6 -28 0
4 7 43 0
-4 -7 -43 0
4 8 58 0
-4 -8 -58 0
5 14 0
-5 -14 0
5 6 29 0
-5 -6 -29 0
5 7 44 0
-5 -7 -44 0
5 8 59 0
-5 -8 -59 0
5 6 15 0
-5 -6 -15 0
6 30 0
-6 -30 0
6 7 45 0
-6 -7 -45 0
6 8 60 0
-6 -8 -60 0
1 4 7 0
-1 -4 -7 0
5 7 16 0
-5 -7 -16 0
6 7 31 0
-6 -7 -31 0
7 46 0
-7 -46 0
7 8 61 0
-7 -8 -61 0
2 4 8 0
-2 -4 -8 0
5 8 17 0
-5 -8 -17 0
6 8 32 0
-6 -8 -32 0
7 8 47 0
-7 -8 -47 0
3 4 9 0
-3 -4 -9 0
5 9 18 0
-5 -9 -18 0
6 9 33 0
-6 -9 -33 0
7 9 48 0
-7 -9 -48 0
4 10 0
-4 -10 0
5 10 19 0
-5 -10 -19 0
6 10 34 0
-6 -10 -34 0
7 10 49 0
-7 -10 -49 0
4 5 11 0
-4 -5 -11 0
5 11 20 0
-5 -11 -20 0
6 11 35 0
-6 -11 -35 0
7 11 50 0
-7 -11 -50 0
4 6 12 0
-4 -6 -12 0
5 12 21 0
-5 -12 -21 0
6 12 36 0
-6 -12 -36 0
7 12 51 0
-7 -12 -51 0
4 7 13 0
-4 -7 -13 0
5 13 22 0
-5 -13 -22 0
6 13 37 0
-6 -13 -37 0
7 13 52 0
-7 -13 -52 0
4 8 14 0
-4 -8 -14 0
5 14 23 0
-5 -14 -23 0
6 14 38 0
-6 -14 -38 0
7 14 53 0
-7 -14 -53 0
4 9 15 0
-4 -9 -15 0
5 15 24 0
-5 -15 -24 0
6 15 39 0
-6 -15 -39 0
7 15 54 0
-7 -15 -54 0
4 10 16 0
-4 -10 -16 0
5 16 25 0
-5 -16 -25 0
6 16 40 0
-6 -16 -40 0
7 16 55 0
-7 -16 -55 0
4 11 17 0
-4 -11 -17 0
5 17 26 0
-5 -17 -26 0
6 17 41 0
-6 -17 -41 0
7 17 56 0
-7 -17 -56 0
4 12 18 0
-4 -12 -18 0
5 18 27 0
-5 -18 -27 0
6 18 42 0
-6 -18 -42 0
7 18 57 0
-7 -18 -57 0
4 13 19 0
-4 -13 -19 0
5 19 28 0
-5 -19 -28 0
6 19 43 0
-6 -19 -43 0
7 19 58 0
-7 -19 -58 0
4 14 20 0
-4 -14 -20 0
5 20 29 0
-5 -20 -29 0
6 20 44 0
-6 -20 -44 0
7 20 59 0
-7 -20 -59 0
4 15 21 0
-4 -15 -21 0
5 21 30 0
-5 -21 -30 0
6 21 45 0
-6 -21 -45 0
7 21 60 0
-7 -21 -60 0
1 3 22 0
-1 -3 -22 0
4 16 22 0
-4 -16 -22 0
5 22 31 0
-5 -22 -31 0
6 22 46 0
-6 -22 -46 0
7 22 61 0
-7 -22 -61 0
2 3 23 0
-2 -3 -23 0
4 17 23 0
-4 -17 -23 0
5 23 32 0
-5 -23 -32 0
6 23 47 0
-6 -23 -47 0
3 24 0
-3 -24 0
4 18 24 0
-4 -18 -24 0
5 24 33 0
-5 -24 -33 0
6 24 48 0
-6 -24 -48 0
3 4 25 0
-3 -4 -25 0
4 19 25 0
-4 -19 -25 0
5 25 34 0
-5 -25 -34 0
6 25 49 0
-6 -25 -49 0
3 5 26 0
-3 -5 -26 0
4 20 26 0
-4 -20 -26 0
5 26 35 0
-5 -26 -35 0
6 26 50 0
-6 -26 -50 0
4 21 27 0
-4 -21 -27 0
5 27 36 0
-5 -27 -36 0
6 27 51 0
-6 -27 -51 0
3 7 28 0
-3 -7 -28 0
4 22 28 0
-4 -22 -28 0
5 28 37 0
-5 -28 -37 0
6 28 52 0
-6 -28 -52 0
3 8 29 0
-3 -8 -29 0
4 23 29 0
-4 -23 -29 0
5 29 38 0
-5 -29 -38 0
6 29 53 0
-6 -29 -53 0
3 9 30 0
-3 -9 -30 0
4 24 30 0
-4 -24 -30 0
5 30 39 0
-5 -30 -39 0
6 30 54 0
-6 -30 -54 0
3 10 31 0
-3 -10 -31 0
4 25 31 0
-4 -25 -31 0
5 31 40 0
-5 -31 -40 0
6 31 55 0
-6 -31 -55 0
3 11 32 0
-3 -11 -32 0
4 26 32 0
-4 -26 -32 0
5 32 41 0
-5 -32 -41 0
6 32 56 0
-6 -32 -56 0
3 12 33 0
-3 -12 -33 0
4 27 33 0
-4 -27 -33 0
5 33 42 0
-5 -33 -42 0
6 33 57 0
-6 -33 -57 0
3 13 34 0
-3 -13 -34 0
4 28 34 0
-4 -28 -34 0
5 34 43 0
-5 -34 -43 0
6 34 58 0
-6 -34 -58 0
3 14 35 0
-3 -14 -35 0
4 29 35 0
-4 -29 -35 0
5 35 44 0
-5 -35 -44 0
6 35 59 0
-6 -35 -59 0
3 15 36 0
-3 -15 -36 0
4 30 36 0
-4 -30 -36 0
5 36 45 0
-5 -36 -45 0
6 36 60 0
-6 -36 -60 0
1 2 37 0
-1 -2 -37 0
3 16 37 0
-3 -16 -37 0
4 31 37 0
-4 -31 -37 0
5 37 46 0
-5 -37 -46 0
6 37 61 0
-6 -37 -61 0
2 38 0
-2 -38 0
3 17 38 0
-3 -17 -38 0
4 32 38 0
-4 -32 -38 0
5 38 47 0
-5 -38 -47 0
2 3 39 0
-2 -3 -39 0
3 18 39 0
-3 -18 -39 0
4 33 39 0
-4 -33 -39 0
5 39 48 0
-5 -39 -48 0
2 4 40 0
-2 -4 -40 0
3 19 40 0
-3 -19 -40 0
4 34 40 0
-4 -34 -40 0
5 40 49 0
-5 -40 -49 0
2 5 41 0
-2 -5 -41 0
3 20 41 0
-3 -20 -41 0
4 35 41 0
-4 -35 -41 0
5 41 50 0
-5 -41 -50 0
2 6 42 0
-2 -6 -42 0
3 21 42 0
-3 -21 -42 0
4 36 42 0
-4 -36 -42 0
5 42 51 0
-5 -42 -51 0
2 7 43 0
-2 -7 -43 0
3 22 43 0
-3 -22 -43 0
4 37 43 0
-4 -37 -43 0
5 43 52 0
-5 -43 -52 0
2 8 44 0
-2 -8 -44 0
3 23 44 0
-3 -23 -44 0
4 38 44 0
-4 -38 -44 0
5 44 53 0
-5 -44 -53 0
2 9 45 0
-2 -9 -45 0
3 24 45 0
-3 -24 -45 0
4 39 45 0
-4 -39 -45 0
5 45 54 0
-5 -45 -54 0
2 10 46 0
-2 -10 -46 0
3 25 46 0
-3 -25 -46 0
4 40 46 0
-4 -40 -46 0
5 46 55 0
-5 -46 -55 0
2 11 47 0
-2 -11 -47 0
3 26 47 0
-3 -26 -47 0
4 41 47 0
-4 -41 -47 0
5 47 56 0
-5 -47 -56 0
2 12 48 0
-2 -12 -48 0
3 27 48 0
-3 -27 -48 0
4 42 48 0
-4 -42 -48 0
5 48 57 0
-5 -48 -57 0
2 13 49 0
-2 -13 -49 0
3 28 49 0
-3 -28 -49 0
4 43 49 0
-4 -43 -49 0
5 49 58 0
-5 -49 -58 0
2 14 50 0
-2 -14 -50 0
3 29 50 0
-3 -29 -50 0
4 44 50 0
-4 -44 -50 0
5 50 59 0
-5 -50 -59 0
2 15 51 0
-2 -15 -51 0
3 30 51 0
-3 -30 -51 0
4 45 51 0
-4 -45 -51 0
5 51 60 0
-5 -51 -60 0
1 52 0
-1 -52 0
2 16 52 0
-2 -16 -52 0
3 31 52 0
-3 -31 -52 0
4 46 52 0
-4 -46 -52 0
5 52 61 0
-5 -52 -61 0
1 2 53 0
-1 -2 -53 0
2 17 53 0
-2 -17 -53 0
3 32 53 0
-3 -32 -53 0
4 47 53 0
-4 -47 -53 0
1 3 54 0
-1 -3 -54 0
2 18 54 0
-2 -18 -54 0
3 33 54 0
-3 -33 -54 0
4 48 54 0
-4 -48 -54 0
1 4 55 0
-1 -4 -55 0
2 19 55 0
-2 -19 -55 0
3 34 55 0
-3 -34 -55 0
4 49 55 0
-4 -49 -55 0
1 5 56 0
-1 -5 -56 0
2 20 56 0
-2 -20 -56 0
3 35 56 0
-3 -35 -56 0
4 50 56 0
-4 -50 -56 0
1 6 57 0
-1 -6 -57 0
2 21 57 0
-2 -21 -57 0
3 36 57 0
-3 -36 -57 0
4 51 57 0
-4 -51 -57 0
1 7 58 0
-1 -7 -58 0
2 22 58 0
-2 -22 -58 0
3 37 58 0
-3 -37 -58 0
4 52 58 0
-4 -52 -58 0
1 8 59 0
-1 -8 -59 0
2 23 59 0
-2 -23 -59 0
3 38 59 0
-3 -38 -59 0
4 53 59 0
-4 -53 -59 0
1 9 60 0
-1 -9 -60 0
2 24 60 0
-2 -24 -60 0
3 39 60 0
-3 -39 -60 0
4 54 60 0
-4 -54 -60 0
1 10 61 0
-1 -10 -61 0
2 25 61 0
-2 -25 -61 0
3 40 61 0
-3 -40 -61 0
4 55 61 0
-4 -55 -61 0
