certificates/rado_a15_c66_N61.drat
4 -61 0
-57 9 -1 -4 0
52 -61 0
-61 0
-52 0
1 0
5 0
-10 0
-14 0
-56 0
4 0
-7 0
-55 0
-13 0
-11 0
46 0
0
